% Generated FlatZinc statistics:
%%%mzn-stat: paths=0
%%%mzn-stat: flatBoolVars=238
%%%mzn-stat: flatIntVars=419
%%%mzn-stat: flatBoolConstraints=119
%%%mzn-stat: flatIntConstraints=485
%%%mzn-stat: evaluatedReifiedConstraints=59
%%%mzn-stat: evaluatedHalfReifiedConstraints=179
%%%mzn-stat: method="minimize"
%%%mzn-stat: flatTime=1.26362
%%%mzn-stat-end

S = [28, 54, 60, 38, 30, 6, 31, 8, 49, 12, 25, 46, 16, 35, 37, 57, 39, 26, 29, 20, 21, 22, 14, 24, 34, 52, 42, 58, 7, 17, 47, 32, 33, 55, 56, 43, 50, 18, 27, 40, 41, 4, 15, 44, 45, 2, 5, 48, 3, 19, 51, 23, 9, 36, 10, 13, 53, 11, 59, 1]
P = [60, 46, 49, 42, 47, 6, 29, 8, 53, 55, 58, 10, 56, 23, 43, 13, 30, 38, 50, 20, 21, 22, 52, 24, 11, 18, 39, 1, 19, 5, 7, 32, 33, 25, 14, 54, 15, 4, 17, 40, 41, 27, 36, 44, 45, 12, 31, 48, 9, 37, 51, 26, 57, 2, 34, 35, 16, 28, 59, 3]
cost = 34187
%%%mzn-stat: initTime=0.051054
%%%mzn-stat: solveTime=300.002
%%%mzn-stat: solutions=14
%%%mzn-stat: variables=719
%%%mzn-stat: propagators=517
%%%mzn-stat: propagations=881402353
%%%mzn-stat: nodes=3851919
%%%mzn-stat: failures=1925873
%%%mzn-stat: restarts=0
%%%mzn-stat: peakDepth=47
%%%mzn-stat-end
itinerary = [1,28,58,11,25,34,55,10,12,46,2,54,36,43,15,37,50,19,29,7,31,47,5,30,17,39,27,42,4,38,18,26,52,23,14,35,56,13,16,57,53,9,49,3,60]
opt = false
